c Output_time 26.03.2020 18:15:12_+0100 1585242912680126285
c ** Program information **
c program_name                          "QBRG_debug"
c version                               "0.3.20"
c date                                  "25.3.2020"
c gid_id                                "673970833836058123f633335630c185360d632e"
c author                                "Oliver Kullmann"
c url                                   "https://github.com/OKullmann/oklibrary/blob/master/Satisfiability/Transformers/Generators/Random/QBRG.cpp"
c ** Machine information **
c machine_name                          "chyna-Lenovo-G50-70"
c bogomips                              3791.08
c ** Compilation information **
c compiler_version                      "g++ 7.5.0"
c compilation_date                      "Mar_26_2020 11:16:30"
c compilation_options                   "--std=c++17 -pedantic -fmax-errors=5 -Wall -Wextra -g -D_GLIBCXX_DEBUG"
c NDEBUG                                0
c OPTIMIZE                              0
c ** Parameters **
c command-line                          "./QBRG_debug" "a40 e40 a40 40" "246*1,1|2-2,1|3-3,1|4-4,1" "" "1,t" ""
c output                                "QuBlRaGe_160_246_1585242912679970520.qdimacs"
c options                               "filtered,renamed"
c num_quantifier_blocks                 4
c  quantifier_blocks                    1:a1-40 2:e41-80 3:a81-120 4:e121-160
c num_clause-blocks                     1
c  clause-blocks                        246 * {1-40,1,1/2} | {41-80,1,1/2} | {81-120,1,1/2} | {121-160,1,1/2}
c num_e-seeds                           37+2=39
c  e-seeds                              1 0 1 0 5 160 2 40 0 40 1 40 0 40 1 246 4 1 1 1 1 2 2 2 1 1 2 3 3 1 1 2 4 4 1 1 2 1 1585242912679969902
p cnf 160 246
a 1 2 3 4 5 6 7 8 9 10 11 12 13 14 15 16 17 18 19 20 21 22 23 24 25 26 27 28 29 30 31 32 33 34 35 36 37 38 39 40 0
e 41 42 43 44 45 46 47 48 49 50 51 52 53 54 55 56 57 58 59 60 61 62 63 64 65 66 67 68 69 70 71 72 73 74 75 76 77 78 79 80 0
a 81 82 83 84 85 86 87 88 89 90 91 92 93 94 95 96 97 98 99 100 101 102 103 104 105 106 107 108 109 110 111 112 113 114 115 116 117 118 119 120 0
e 121 122 123 124 125 126 127 128 129 130 131 132 133 134 135 136 137 138 139 140 141 142 143 144 145 146 147 148 149 150 151 152 153 154 155 156 157 158 159 160 0
31 -63 88 -121 0
33 -47 108 -121 0
-13 -58 113 -121 0
17 57 -97 121 0
11 -66 100 121 0
-24 -78 101 121 0
-2 -45 108 121 0
2 -46 118 121 0
4 78 87 -122 0
40 45 88 -122 0
-17 -57 -91 -122 0
16 -58 -119 -122 0
31 -47 93 122 0
30 58 -97 122 0
22 43 113 122 0
-16 -65 -120 122 0
-28 -78 103 -123 0
21 55 115 -123 0
24 59 93 123 0
-31 -49 83 -124 0
-24 51 110 -124 0
-27 77 82 124 0
-26 -77 -92 124 0
21 -77 -98 124 0
39 -61 101 124 0
-37 55 -109 124 0
-1 -63 -109 124 0
14 -42 -112 124 0
-7 -50 86 -125 0
-35 -62 -92 -125 0
-40 57 -102 -125 0
-8 -55 110 -125 0
-38 -68 -81 125 0
-15 51 99 125 0
3 60 99 125 0
-20 56 105 125 0
-16 -64 85 -126 0
2 51 91 -126 0
-28 77 -96 -126 0
-34 69 -107 -126 0
22 55 -108 126 0
-35 59 99 -127 0
-19 52 -114 -127 0
40 -64 90 127 0
-28 -60 95 127 0
-14 -70 89 128 0
11 -42 -97 128 0
-8 -76 118 128 0
14 57 120 128 0
27 -45 82 -129 0
-9 -64 -101 -129 0
31 -74 -111 -129 0
16 -42 87 129 0
37 67 97 129 0
20 -71 -118 129 0
-18 53 86 -130 0
28 -76 -93 -130 0
-12 73 99 -130 0
31 45 108 -130 0
14 64 108 -130 0
-33 -71 82 130 0
14 -75 85 130 0
-21 -71 -89 130 0
-3 45 -94 130 0
-18 69 98 130 0
28 -66 118 130 0
-10 -62 -81 -131 0
7 -76 -86 -131 0
-5 -62 89 -131 0
4 54 -114 -131 0
-34 48 -115 -131 0
-21 62 95 131 0
-40 -51 96 131 0
37 72 -102 131 0
37 -64 -106 131 0
-8 70 120 131 0
-37 -65 95 -132 0
-4 -80 -99 -132 0
1 -57 102 -132 0
-36 -68 -115 -132 0
-22 -74 -83 -133 0
-27 -45 94 -133 0
31 47 97 -133 0
-36 -80 -117 133 0
8 -64 82 -134 0
33 -53 95 -134 0
-31 64 -81 -135 0
33 80 85 -135 0
14 73 93 -135 0
-35 73 -81 -136 0
-27 75 -83 -136 0
29 -68 -87 -136 0
23 63 93 -136 0
22 -75 104 136 0
13 -68 -119 136 0
-16 -42 89 -137 0
-23 43 100 -137 0
-26 -41 113 -137 0
19 -78 -81 137 0
-11 -50 82 -138 0
14 -80 95 -138 0
-10 -41 119 -138 0
18 -65 91 -139 0
10 -45 93 -139 0
-40 74 -95 -139 0
-21 -51 89 139 0
-33 -76 -92 139 0
38 -52 -98 139 0
26 -59 101 139 0
15 68 115 139 0
26 45 -89 -140 0
39 -51 -89 -140 0
10 -61 109 -140 0
-29 47 -110 -140 0
39 -59 105 140 0
23 50 85 -141 0
-25 -44 -91 141 0
-28 -80 91 141 0
-17 -48 -85 -142 0
8 52 -92 -142 0
-17 -55 103 -142 0
-4 -68 -107 -142 0
29 48 -115 -142 0
-34 42 -82 142 0
-23 -74 84 142 0
27 47 88 142 0
9 -52 -96 142 0
13 -57 -115 142 0
13 -75 85 -143 0
14 68 93 -143 0
-2 47 94 -143 0
-35 -76 119 -143 0
31 71 86 143 0
6 -49 92 143 0
26 41 101 143 0
1 -69 117 143 0
-26 -75 117 143 0
-16 70 112 -144 0
25 -72 84 144 0
-6 42 -94 144 0
1 46 -95 144 0
-13 63 -97 144 0
-26 74 115 144 0
14 -78 93 -145 0
10 75 -101 -145 0
-33 -64 -102 -145 0
15 -66 -114 -145 0
18 67 120 -145 0
-1 43 85 145 0
-6 77 88 145 0
28 60 -103 145 0
21 60 104 145 0
38 45 117 -146 0
-33 -56 -88 146 0
-23 42 112 146 0
3 -56 -91 -147 0
11 -75 -114 -147 0
26 79 -95 147 0
-28 76 -109 147 0
-15 -71 114 147 0
-14 52 81 -148 0
-30 45 -83 -148 0
-19 57 112 -148 0
25 60 115 -148 0
-1 49 98 -149 0
4 58 -103 -149 0
-12 61 -108 -149 0
32 -59 -112 -149 0
-17 -50 116 -149 0
22 62 119 -149 0
28 -47 92 149 0
-8 -68 95 149 0
7 -68 -108 149 0
-10 -57 91 -150 0
29 -54 106 -150 0
10 74 107 -150 0
15 44 -109 -150 0
-16 -56 110 -150 0
-37 -64 119 -150 0
-12 74 -81 150 0
-37 -45 -82 150 0
-7 49 -120 150 0
35 57 96 -151 0
18 -64 96 -151 0
-12 -70 107 -151 0
-20 -49 -108 -151 0
-34 60 84 151 0
-37 -67 91 151 0
-5 -41 101 151 0
-33 -63 112 151 0
-38 -79 -119 151 0
16 -64 -84 -152 0
20 -60 89 -152 0
16 -64 99 -152 0
-33 -71 109 -152 0
-17 51 -120 -152 0
23 -46 -101 152 0
1 -46 112 152 0
40 58 112 152 0
21 -72 108 -153 0
17 64 -110 -153 0
14 -71 104 153 0
2 -61 -105 153 0
4 -48 116 153 0
3 -45 -82 -154 0
-13 -43 86 -154 0
-33 -51 92 -154 0
-22 64 -93 -154 0
-34 -73 -91 154 0
31 51 112 154 0
-26 -72 -113 154 0
30 46 120 154 0
4 70 92 -155 0
-39 -64 -95 -155 0
36 -71 -81 155 0
-34 80 -84 155 0
12 50 87 155 0
-12 -76 88 155 0
-28 -59 96 155 0
-10 69 -108 155 0
31 55 91 -156 0
-14 61 95 -156 0
-30 69 107 -156 0
10 -51 89 156 0
15 43 90 156 0
-9 -63 -100 156 0
25 -68 101 156 0
23 61 103 156 0
-8 -69 83 -157 0
36 -45 86 -157 0
13 53 -102 -157 0
16 65 117 -157 0
-27 -70 -115 157 0
9 80 -97 -158 0
7 52 107 -158 0
-37 71 101 158 0
7 49 102 158 0
32 -48 105 158 0
32 44 -106 158 0
-34 77 109 -159 0
26 -73 -108 159 0
19 56 120 159 0
-38 -50 82 -160 0
-35 74 102 160 0
8 -49 109 160 0
25 -44 120 160 0
